p td 40 40
0 36
0 16
1 18
1 31
2 36
4 19
4 12
4 18
5 28
5 6
5 19
7 29
7 27
7 16
8 18
8 13
9 28
10 24
10 14
11 28
11 21
12 34
12 18
13 25
13 26
13 22
14 21
15 25
18 23
19 20
19 24
19 21
20 33
22 26
23 36
23 24
25 36
30 36
33 35
37 38
